
Gurobi 12.0.0 (mac64[x86], gurobi_cl) logging started Wed Sep 10 19:39:57 2025

Set parameter Username
Set parameter LogFile to value "gurobi.log"
Using license file /Users/TimSchubert/gurobi.lic
Academic license - for non-commercial use only - expires 2026-04-12

Gurobi 12.0.0 (mac64[x86], gurobi_cl) logging started Wed Sep 10 19:59:49 2025

Set parameter Username
Set parameter LogFile to value "gurobi.log"
Using license file /Users/TimSchubert/gurobi.lic
Academic license - for non-commercial use only - expires 2026-04-12

Gurobi 12.0.0 (mac64[x86], gurobi_cl) logging started Wed Sep 10 20:01:50 2025

Set parameter Username
Set parameter LogFile to value "gurobi.log"
Using license file /Users/TimSchubert/gurobi.lic
Academic license - for non-commercial use only - expires 2026-04-12

Gurobi 12.0.0 (mac64[x86], gurobi_cl) logging started Wed Sep 10 20:03:55 2025

Set parameter Username
Set parameter LogFile to value "gurobi.log"
Using license file /Users/TimSchubert/gurobi.lic
Academic license - for non-commercial use only - expires 2026-04-12

Gurobi 12.0.0 (mac64[x86], gurobi_cl) logging started Wed Sep 10 20:15:20 2025

Set parameter Username
Set parameter LogFile to value "gurobi.log"
Using license file /Users/TimSchubert/gurobi.lic
Academic license - for non-commercial use only - expires 2026-04-12

Gurobi 12.0.0 (mac64[x86], gurobi_cl) logging started Wed Sep 10 20:19:42 2025

Set parameter Username
Set parameter LogFile to value "gurobi.log"
Using license file /Users/TimSchubert/gurobi.lic
Academic license - for non-commercial use only - expires 2026-04-12

Gurobi 12.0.0 (mac64[x86], gurobi_cl) logging started Wed Sep 10 20:24:28 2025

Set parameter Username
Set parameter LogFile to value "gurobi.log"
Using license file /Users/TimSchubert/gurobi.lic
Academic license - for non-commercial use only - expires 2026-04-12

Gurobi 12.0.0 (mac64[x86], gurobi_cl) logging started Wed Sep 10 20:30:35 2025

Set parameter Username
Set parameter LogFile to value "gurobi.log"
Using license file /Users/TimSchubert/gurobi.lic
Academic license - for non-commercial use only - expires 2026-04-12

Gurobi 12.0.0 (mac64[x86], gurobi_cl) logging started Wed Sep 10 20:34:25 2025

Set parameter Username
Set parameter LogFile to value "gurobi.log"
Using license file /Users/TimSchubert/gurobi.lic
Academic license - for non-commercial use only - expires 2026-04-12

Gurobi 12.0.0 (mac64[x86], gurobi_cl) logging started Wed Sep 10 20:34:36 2025

Set parameter Username
Set parameter LogFile to value "gurobi.log"
Using license file /Users/TimSchubert/gurobi.lic
Academic license - for non-commercial use only - expires 2026-04-12

Gurobi 12.0.3 (mac64[x86], gurobi_cl) logging started Wed Sep 10 23:21:16 2025

Set parameter Username
Set parameter LogFile to value "gurobi.log"
Using license file /Users/TimSchubert/gurobi.lic
Academic license - for non-commercial use only - expires 2026-04-12

Gurobi 12.0.3 (mac64[x86], gurobi_cl) logging started Wed Sep 10 23:25:30 2025

Set parameter Username
Set parameter LogFile to value "gurobi.log"
Using license file /Users/TimSchubert/gurobi.lic
Academic license - for non-commercial use only - expires 2026-04-12

Gurobi 12.0.3 (mac64[x86], gurobi_cl) logging started Wed Sep 10 23:51:55 2025

Set parameter Username
Set parameter LogFile to value "gurobi.log"
Using license file /Users/TimSchubert/gurobi.lic
Academic license - for non-commercial use only - expires 2026-04-12

Gurobi 12.0.3 (mac64[x86], gurobi_cl) logging started Wed Sep 10 23:52:13 2025

Set parameter Username
Set parameter LogFile to value "gurobi.log"
Using license file /Users/TimSchubert/gurobi.lic
Academic license - for non-commercial use only - expires 2026-04-12

Gurobi 12.0.3 (mac64[x86], gurobi_cl) logging started Thu Sep 11 00:14:42 2025

Set parameter Username
Set parameter LogFile to value "gurobi.log"
Using license file /Users/TimSchubert/gurobi.lic
Academic license - for non-commercial use only - expires 2026-04-12

Gurobi 12.0.3 (mac64[x86], gurobi_cl) logging started Thu Sep 11 00:16:48 2025

Set parameter Username
Set parameter LogFile to value "gurobi.log"
Using license file /Users/TimSchubert/gurobi.lic
Academic license - for non-commercial use only - expires 2026-04-12

Gurobi 12.0.3 (mac64[x86], gurobi_cl) logging started Thu Sep 11 10:49:58 2025

Set parameter Username
Set parameter LogFile to value "gurobi.log"
Using license file /Users/TimSchubert/gurobi.lic
Academic license - for non-commercial use only - expires 2026-04-12

Gurobi 12.0.3 (mac64[x86], gurobi_cl) logging started Thu Sep 11 10:55:55 2025

Set parameter Username
Set parameter LogFile to value "gurobi.log"
Using license file /Users/TimSchubert/gurobi.lic
Academic license - for non-commercial use only - expires 2026-04-12

Gurobi 12.0.3 (mac64[x86], gurobi_cl) logging started Thu Sep 11 11:01:22 2025

Set parameter Username
Set parameter LogFile to value "gurobi.log"
Using license file /Users/TimSchubert/gurobi.lic
Academic license - for non-commercial use only - expires 2026-04-12

Gurobi 12.0.0 (mac64[x86], gurobi_cl) logging started Thu Sep 11 11:27:07 2025

Set parameter Username
Set parameter LogFile to value "gurobi.log"
Using license file /Users/TimSchubert/gurobi.lic
Academic license - for non-commercial use only - expires 2026-04-12

Gurobi 12.0.0 (mac64[x86], gurobi_cl) logging started Thu Sep 11 18:11:30 2025

Set parameter Username
Set parameter LogFile to value "gurobi.log"
Using license file /Users/TimSchubert/gurobi.lic
Academic license - for non-commercial use only - expires 2026-04-12

Gurobi 12.0.0 (mac64[x86], gurobi_cl) logging started Thu Sep 11 18:12:14 2025

Set parameter Username
Set parameter LogFile to value "gurobi.log"
Using license file /Users/TimSchubert/gurobi.lic
Academic license - for non-commercial use only - expires 2026-04-12

Gurobi 12.0.0 (mac64[x86], gurobi_cl) logging started Thu Sep 11 18:23:31 2025

Set parameter Username
Set parameter LogFile to value "gurobi.log"
Using license file /Users/TimSchubert/gurobi.lic
Academic license - for non-commercial use only - expires 2026-04-12

Gurobi 12.0.0 (mac64[x86], gurobi_cl) logging started Thu Sep 11 18:37:23 2025

Set parameter Username
Set parameter LogFile to value "gurobi.log"
Using license file /Users/TimSchubert/gurobi.lic
Academic license - for non-commercial use only - expires 2026-04-12

Gurobi 12.0.0 (mac64[x86], gurobi_cl) logging started Thu Sep 11 18:44:13 2025

Set parameter Username
Set parameter LogFile to value "gurobi.log"
Using license file /Users/TimSchubert/gurobi.lic
Academic license - for non-commercial use only - expires 2026-04-12

Gurobi 12.0.0 (mac64[x86], gurobi_cl) logging started Thu Sep 11 22:13:34 2025

Set parameter Username
Set parameter LogFile to value "gurobi.log"
Using license file /Users/TimSchubert/gurobi.lic
Academic license - for non-commercial use only - expires 2026-04-12

Gurobi 12.0.0 (mac64[x86], gurobi_cl) logging started Thu Sep 11 22:23:49 2025

Set parameter Username
Set parameter LogFile to value "gurobi.log"
Using license file /Users/TimSchubert/gurobi.lic
Academic license - for non-commercial use only - expires 2026-04-12

Gurobi 12.0.0 (mac64[x86], gurobi_cl) logging started Thu Sep 11 22:28:28 2025

Set parameter Username
Set parameter LogFile to value "gurobi.log"
Using license file /Users/TimSchubert/gurobi.lic
Academic license - for non-commercial use only - expires 2026-04-12

Gurobi 12.0.0 (mac64[x86], gurobi_cl) logging started Thu Sep 11 22:28:49 2025

Set parameter Username
Set parameter LogFile to value "gurobi.log"
Using license file /Users/TimSchubert/gurobi.lic
Academic license - for non-commercial use only - expires 2026-04-12

Gurobi 12.0.0 (mac64[x86], gurobi_cl) logging started Thu Sep 11 22:31:55 2025

Set parameter Username
Set parameter LogFile to value "gurobi.log"
Using license file /Users/TimSchubert/gurobi.lic
Academic license - for non-commercial use only - expires 2026-04-12

Gurobi 12.0.0 (mac64[x86], gurobi_cl) logging started Thu Sep 11 22:32:34 2025

Set parameter Username
Set parameter LogFile to value "gurobi.log"
Using license file /Users/TimSchubert/gurobi.lic
Academic license - for non-commercial use only - expires 2026-04-12

Gurobi 12.0.0 (mac64[x86], gurobi_cl) logging started Thu Sep 11 22:36:21 2025

Set parameter Username
Set parameter LogFile to value "gurobi.log"
Using license file /Users/TimSchubert/gurobi.lic
Academic license - for non-commercial use only - expires 2026-04-12

Gurobi 12.0.0 (mac64[x86], gurobi_cl) logging started Thu Sep 11 22:38:12 2025

Set parameter Username
Set parameter LogFile to value "gurobi.log"
Using license file /Users/TimSchubert/gurobi.lic
Academic license - for non-commercial use only - expires 2026-04-12

Gurobi 12.0.0 (mac64[x86], gurobi_cl) logging started Thu Sep 11 23:11:29 2025

Set parameter Username
Set parameter LogFile to value "gurobi.log"
Using license file /Users/TimSchubert/gurobi.lic
Academic license - for non-commercial use only - expires 2026-04-12

Gurobi 12.0.0 (mac64[x86], gurobi_cl) logging started Fri Sep 12 06:31:12 2025

Set parameter Username
Set parameter LogFile to value "gurobi.log"
Using license file /Users/TimSchubert/gurobi.lic
Academic license - for non-commercial use only - expires 2026-04-12

Gurobi 12.0.0 (mac64[x86], gurobi_cl) logging started Fri Sep 19 13:10:37 2025

Set parameter Username
Set parameter LogFile to value "gurobi.log"
Using license file /Users/TimSchubert/gurobi.lic
Academic license - for non-commercial use only - expires 2026-04-12
